<number of tasks>
100

<cycle time>
1000

<order strength>
0.595


<task times>
1 271
2 86
3 155
4 572
5 424
6 452
7 191
8 492
9 113
10 27
11 144
12 174
13 223
14 132
15 586
16 302
17 165
18 333
19 113
20 186
21 458
22 65
23 401
24 367
25 367
26 82
27 520
28 101
29 237
30 348
31 426
32 527
33 189
34 532
35 240
36 55
37 47
38 366
39 200
40 183
41 139
42 124
43 194
44 45
45 292
46 218
47 205
48 248
49 427
50 146
51 230
52 170
53 162
54 532
55 208
56 30
57 136
58 42
59 572
60 234
61 429
62 509
63 490
64 151
65 124
66 161
67 220
68 243
69 259
70 81
71 253
72 423
73 77
74 163
75 373
76 72
77 254
78 47
79 193
80 438
81 265
82 117
83 264
84 94
85 172
86 542
87 155
88 173
89 91
90 30
91 55
92 164
93 478
94 385
95 159
96 104
97 100
98 30
99 207
100 198

<precedence relations>
1,33
2,33
3,45
4,45
5,60
6,60
7,8
7,9
7,10
7,11
7,12
7,13
8,33
9,45
10,45
11,92
12,14
12,18
13,14
13,15
13,16
13,17
13,23
13,34
14,33
15,60
16,60
17,60
18,19
18,20
18,21
18,22
18,23
18,24
19,33
20,33
21,33
22,80
23,26
23,27
23,29
24,25
24,28
24,30
24,31
24,32
25,33
26,33
27,33
28,33
29,45
30,92
31,60
32,34
32,35
32,36
32,37
32,38
32,47
33,39
33,40
33,41
33,42
33,43
33,44
34,60
35,60
36,60
37,60
37,73
38,46
38,75
38,79
38,81
39,45
40,92
41,60
42,47
42,48
42,62
43,45
44,46
44,56
44,57
44,61
44,62
45,49
45,50
45,51
45,52
45,53
45,54
45,55
45,58
46,92
47,49
47,57
47,75
48,56
48,73
49,80
50,60
51,74
51,75
51,76
51,79
52,86
53,61
53,81
54,59
54,62
54,79
55,59
56,60
57,74
57,77
58,59
58,60
59,80
60,63
60,64
60,65
60,66
60,67
60,68
60,69
60,70
60,71
60,72
61,73
62,81
62,100
63,74
63,75
63,76
63,77
64,74
64,79
66,74
66,75
67,77
67,78
68,76
68,79
68,87
69,74
69,76
71,74
71,78
71,79
72,74
72,79
73,78
73,80
74,80
75,80
76,81
76,91
77,87
78,90
80,82
80,83
80,84
80,85
80,86
80,87
81,94
82,88
82,100
84,89
84,90
85,89
85,91
86,91
86,93
86,94
87,93
88,92
89,93
90,94
90,95
91,95
92,96
92,97
92,98
92,99
93,100
95,100

<end>
